Route #1: 48 36 32 49 33 13 3
Route #2: 11 55 20 31 34 54 30 2 43 14 44
Route #3: 51 23 22 50 38 9 12 5 40 28
Route #4: 19 18 10 17 8 46 7 15
Route #5: 53 6 24 45 41 29 37 42
Route #6: 47 39 4 26 21 35 16 27
Route #7: 52 1 25
Cost 747